Instance Name : r205
Date : 2022-07-20
Solution
Route 1 : 28 12 29 33 30 65 71 9 51 81 76 50 3 79 78 34 35 66 20 32 10 70 1
Route 2 : 27 69 31 88 62 11 63 90 64 49 19 7 48
Route 3 : 82 47 36 46 8 18 84 17 60 89
Route 4 : 52 83 45 5 61 44 14 38 86 16 85 98 99 6 94 97 87 57 43 91 100 37 93 96 13 58
Route 5 : 95 59 92 42 15 2 72 39 67 23 75 22 41 73 21 40 53 26 74 56 4 25 55 54 24 80 68 77
